p tw 75 81
1 2
2 13
3 4
4 5
5 6
6 7
7 8
8 9
9 10
9 30
10 11
11 12
12 14
13 24
14 15
15 16
15 19
16 17
17 18
18 72
19 20
20 21
21 22
22 23
23 25
24 35
25 26
26 27
27 28
28 29
29 72
30 31
31 32
32 33
32 72
33 34
34 36
35 46
36 37
37 38
37 56
38 39
39 40
40 41
41 42
42 43
43 44
44 45
45 47
46 57
47 48
48 49
49 50
49 51
50 51
51 52
52 53
53 54
54 55
55 64
56 58
57 68
58 59
59 60
59 64
60 61
61 62
62 63
63 64
64 65
65 66
66 67
67 69
68 74
69 70
69 72
70 71
71 72
72 73
74 75
75 3
